32      4       
10      10      10      10      
0       0       0       0       0       8       2       3       4       5       6       7       8       14      
6       1       0       1       1       4       9       10      12      13      
4       0       1       3       1       5       13      15      19      20      27      
6       4       0       4       4       5       9       10      12      20      21      
2       0       3       3       4       2       10      13      
1       0       4       10      5       4       11      18      21      27      
7       0       6       2       7       2       9       21      
6       3       4       0       1       4       16      19      20      21      
10      5       6       7       0       3       16      19      27      
2       0       9       5       4       4       18      19      22      27      
5       6       0       4       5       5       19      20      22      25      31      
3       3       0       3       4       3       18      19      22      
2       8       0       4       3       3       17      21      23      
5       0       4       5       7       3       19      21      25      
1       1       6       7       0       1       16      
1       7       3       6       0       2       18      22      
9       4       3       3       0       5       22      24      26      30      31      
3       2       1       4       0       4       23      24      25      31      
4       0       1       3       2       3       23      26      29      
6       3       0       3       8       3       24      28      30      
6       7       3       0       3       2       22      31      
9       3       0       4       5       1       28      
9       5       0       3       3       1       30      
6       0       7       5       1       1       29      
1       3       5       3       0       1       29      
3       4       5       2       0       1       28      
10      4       2       0       7       1       28      
4       3       0       3       6       1       32      
1       4       0       4       3       1       32      
5       3       3       0       4       1       32      
2       5       0       3       4       1       32      
0       0       0       0       0       0       
